g3 0 1 0	# problem zigzag
 58 50 1 10 40	# vars, constraints, objectives, ranges, eqns
 10 1	# nonlinear constraints, objectives
 0 0	# network constraints: nonlinear, linear
 10 10 10	# nonlinear vars in constraints, objectives, both
 0 0 0 1	# linear network variables; functions; arith, flags
 0 0 0 0 0	# discrete variables: binary, integer, nonlinear (b,c,o)
 132 10	# nonzeros in Jacobian, gradients
 0 0	# max name lengths: constraints, variables
 0 0 0 0 0	# common exprs: b,c,o,c1,o1
b
0 0 10
0 0 10
0 0 10
0 0 10
0 0 10
0 0 10
0 0 10
0 0 10
0 0 10
0 0 10
3
3
3
3
3
3
3
3
3
3
3
3
3
3
3
3
3
3
3
3
3
3
3
3
3
3
3
3
0 -1 1
0 -1 1
0 -1 1
0 -1 1
0 -1 1
0 -1 1
0 -1 1
0 -1 1
0 -1 1
0 -1 1
0 -1 1
0 -1 1
0 -1 1
0 -1 1
0 -1 1
0 -1 1
0 -1 1
0 -1 1
0 -1 1
0 -1 1
x19
0 1
1 2
2 3
3 4
4 5
5 6
6 7
7 8
8 9
9 10
11 1
14 1
17 1
20 1
23 1
26 1
29 1
32 1
35 1
r
0 -0.1 0.1
0 -0.1 0.1
0 -0.1 0.1
0 -0.1 0.1
0 -0.1 0.1
0 -0.1 0.1
0 -0.1 0.1
0 -0.1 0.1
0 -0.1 0.1
0 -0.1 0.1
4 0
4 0
4 0
4 0
4 0
4 0
4 0
4 0
4 0
4 0
4 0
4 0
4 0
4 0
4 0
4 0
4 0
4 0
4 0
4 0
4 0
4 0
4 0
4 0
4 0
4 0
4 0
4 0
4 0
4 0
4 0
4 0
4 0
4 0
4 0
4 0
4 0
4 0
4 0
4 0
C0
o16
o41
v0
C1
o16
o41
v1
C2
o16
o41
v2
C3
o16
o41
v3
C4
o16
o41
v4
C5
o16
o41
v5
C6
o16
o41
v6
C7
o16
o41
v7
C8
o16
o41
v8
C9
o16
o41
v9
C10
n0
C11
n0
C12
n0
C13
n0
C14
n0
C15
n0
C16
n0
C17
n0
C18
n0
C19
n0
C20
n0
C21
n0
C22
n0
C23
n0
C24
n0
C25
n0
C26
n0
C27
n0
C28
n0
C29
n0
C30
n0
C31
n0
C32
n0
C33
n0
C34
n0
C35
n0
C36
n0
C37
n0
C38
n0
C39
n0
C40
n0
C41
n0
C42
n0
C43
n0
C44
n0
C45
n0
C46
n0
C47
n0
C48
n0
C49
n0
O0 0
o54
10
o2
n0.01818181818181818
o2
o0
n-10
v0
o0
n-10
v0
o2
n0.03636363636363636
o2
o0
n-10
v1
o0
n-10
v1
o2
n0.05454545454545455
o2
o0
n-10
v2
o0
n-10
v2
o2
n0.07272727272727272
o2
o0
n-10
v3
o0
n-10
v3
o2
n0.09090909090909091
o2
o0
n-10
v4
o0
n-10
v4
o2
n0.1090909090909091
o2
o0
n-10
v5
o0
n-10
v5
o2
n0.1272727272727273
o2
o0
n-10
v6
o0
n-10
v6
o2
n0.14545454545454545
o2
o0
n-10
v7
o0
n-10
v7
o2
n0.16363636363636364
o2
o0
n-10
v8
o0
n-10
v8
o2
n0.18181818181818182
o2
o0
n-10
v9
o0
n-10
v9
k57
3
6
9
12
15
18
21
24
27
29
32
35
38
41
44
47
50
53
56
59
62
65
68
71
74
77
80
83
86
89
92
95
98
101
104
107
110
112
113
114
115
116
117
118
119
120
121
122
123
124
125
126
127
128
129
130
131
J0 2
0 0
10 1
J1 2
1 0
13 1
J2 2
2 0
16 1
J3 2
3 0
19 1
J4 2
4 0
22 1
J5 2
5 0
25 1
J6 2
6 0
28 1
J7 2
7 0
31 1
J8 2
8 0
34 1
J9 2
9 0
37 1
J10 2
11 0.5
38 -1
J11 2
12 0.5
39 -1
J12 2
0 1
11 -1
J13 2
10 1
12 -1
J14 3
11 -0.5
14 0.5
40 -1
J15 3
12 -0.5
15 0.5
41 -1
J16 3
0 -1
1 1
14 -1
J17 3
10 -1
13 1
15 -1
J18 3
14 -0.5
17 0.5
42 -1
J19 3
15 -0.5
18 0.5
43 -1
J20 3
1 -1
2 1
17 -1
J21 3
13 -1
16 1
18 -1
J22 3
17 -0.5
20 0.5
44 -1
J23 3
18 -0.5
21 0.5
45 -1
J24 3
2 -1
3 1
20 -1
J25 3
16 -1
19 1
21 -1
J26 3
20 -0.5
23 0.5
46 -1
J27 3
21 -0.5
24 0.5
47 -1
J28 3
3 -1
4 1
23 -1
J29 3
19 -1
22 1
24 -1
J30 3
23 -0.5
26 0.5
48 -1
J31 3
24 -0.5
27 0.5
49 -1
J32 3
4 -1
5 1
26 -1
J33 3
22 -1
25 1
27 -1
J34 3
26 -0.5
29 0.5
50 -1
J35 3
27 -0.5
30 0.5
51 -1
J36 3
5 -1
6 1
29 -1
J37 3
25 -1
28 1
30 -1
J38 3
29 -0.5
32 0.5
52 -1
J39 3
30 -0.5
33 0.5
53 -1
J40 3
6 -1
7 1
32 -1
J41 3
28 -1
31 1
33 -1
J42 3
32 -0.5
35 0.5
54 -1
J43 3
33 -0.5
36 0.5
55 -1
J44 3
7 -1
8 1
35 -1
J45 3
31 -1
34 1
36 -1
J46 2
35 -0.5
56 -1
J47 2
36 -0.5
57 -1
J48 2
8 -1
9 1
J49 2
34 -1
37 1
G0 10
0 0
1 0
2 0
3 0
4 0
5 0
6 0
7 0
8 0
9 0
